10	5
0	5	5	4	3	1	2
1	1	6
2	2	9	6
3	2	7	9
4	1	9
5	1	9
6	2	11	10
7	1	8
8	1	11
9	1	11
10	1	11
11	0
0	0	0	0	0	0	0
1	10	2	5	0	0	0
2	1	4	4	0	0	0
3	6	1	4	0	2	3
4	3	0	3	3	4	0
5	2	0	1	1	0	0
6	10	5	0	4	5	0
7	10	5	0	0	0	1
8	5	4	2	4	2	0
9	3	0	1	0	5	0
10	3	0	0	0	5	0
11	0	0	0	0	0	0
6	11	4	6	4
